#P HF/6-31G(d) Opt

water

0 1
O         0.000000000000     -0.028987569640      0.000000000000
H        -0.780454195207      0.541093784820      0.000000000000
H         0.780454195207      0.541093784820      0.000000000000


