%Chk=hf_631gd.chk
#P HF/6-31G(d) Freq Geom=AllCheck Guess=Read
