%Chk=opt.chk
#P B3LYP/6-31G(d) Opt

caffeine

0 1
C      3.269703    0.603913   -0.226509
N      2.124762   -0.269300   -0.277820
C      2.143167   -1.612792   -0.544972
N      0.930866   -2.130315   -0.518950
C      0.118907   -1.076786   -0.225132
C      0.821099    0.079791   -0.071068
C      0.211751    1.325568    0.239278
O      0.853979    2.362560    0.376077
N     -1.177145    1.231427    0.367547
C     -1.939456    0.053977    0.215723
O     -3.166857    0.071668    0.348999
N     -1.247465   -1.118683   -0.088930
C     -1.957324   -2.372888   -0.261453
C     -1.917449    2.437152    0.683835
H      4.175883    0.029601   -0.435704
H      3.146206    1.384588   -0.981191
H      3.331852    1.038007    0.774466
H      3.055148   -2.159758   -0.749370
H     -1.589301   -3.095821    0.473490
H     -3.035207   -2.253860   -0.123999
H     -1.773851   -2.751256   -1.272092
H     -2.462216    2.284375    1.621329
H     -2.645514    2.626482   -0.111830
H     -1.271537    3.312353    0.788278
